p cnf 999 535
117 0
239 0
253 0
314 0
338 0
361 0
397 0
488 0
546 0
552 0
567 0
595 0
654 0
665 0
699 0
715 0
733 0
764 0
832 0
876 0
957 0
979 0
998 0
-111 0
-112 0
-113 0
-114 0
-115 0
-116 0
-118 0
-119 0
-231 0
-232 0
-233 0
-234 0
-235 0
-236 0
-237 0
-238 0
-251 0
-252 0
-254 0
-255 0
-256 0
-257 0
-258 0
-259 0
-311 0
-312 0
-313 0
-315 0
-316 0
-317 0
-318 0
-319 0
-331 0
-332 0
-333 0
-334 0
-335 0
-336 0
-337 0
-339 0
-362 0
-363 0
-364 0
-365 0
-366 0
-367 0
-368 0
-369 0
-391 0
-392 0
-393 0
-394 0
-395 0
-396 0
-398 0
-399 0
-481 0
-482 0
-483 0
-484 0
-485 0
-486 0
-487 0
-489 0
-541 0
-542 0
-543 0
-544 0
-545 0
-547 0
-548 0
-549 0
-551 0
-553 0
-554 0
-555 0
-556 0
-557 0
-558 0
-559 0
-561 0
-562 0
-563 0
-564 0
-565 0
-566 0
-568 0
-569 0
-591 0
-592 0
-593 0
-594 0
-596 0
-597 0
-598 0
-599 0
-651 0
-652 0
-653 0
-655 0
-656 0
-657 0
-658 0
-659 0
-661 0
-662 0
-663 0
-664 0
-666 0
-667 0
-668 0
-669 0
-691 0
-692 0
-693 0
-694 0
-695 0
-696 0
-697 0
-698 0
-711 0
-712 0
-713 0
-714 0
-716 0
-717 0
-718 0
-719 0
-731 0
-732 0
-734 0
-735 0
-736 0
-737 0
-738 0
-739 0
-761 0
-762 0
-763 0
-765 0
-766 0
-767 0
-768 0
-769 0
-831 0
-833 0
-834 0
-835 0
-836 0
-837 0
-838 0
-839 0
-871 0
-872 0
-873 0
-874 0
-875 0
-877 0
-878 0
-879 0
-951 0
-952 0
-953 0
-954 0
-955 0
-956 0
-958 0
-959 0
-971 0
-972 0
-973 0
-974 0
-975 0
-976 0
-977 0
-978 0
-991 0
-992 0
-993 0
-994 0
-995 0
-996 0
-997 0
-999 0
-124 0
-134 0
-214 0
-224 0
-324 0
-127 0
-137 0
-217 0
-227 0
-327 0
-128 0
-138 0
-218 0
-228 0
-328 0
-129 0
-139 0
-219 0
-229 0
-329 0
-141 0
-151 0
-161 0
-241 0
-261 0
-341 0
-351 0
-143 0
-153 0
-163 0
-243 0
-263 0
-343 0
-353 0
-177 0
-187 0
-197 0
-277 0
-287 0
-297 0
-377 0
-387 0
-442 0
-452 0
-462 0
-642 0
-444 0
-454 0
-464 0
-644 0
-445 0
-455 0
-465 0
-645 0
-446 0
-456 0
-466 0
-646 0
-447 0
-457 0
-467 0
-647 0
-475 0
-495 0
-575 0
-585 0
-675 0
-685 0
-478 0
-498 0
-578 0
-588 0
-678 0
-688 0
-479 0
-499 0
-579 0
-589 0
-679 0
-689 0
-722 0
-812 0
-822 0
-912 0
-922 0
-932 0
-723 0
-813 0
-823 0
-913 0
-923 0
-933 0
-725 0
-815 0
-825 0
-915 0
-925 0
-935 0
-744 0
-754 0
-844 0
-854 0
-864 0
-944 0
-964 0
-747 0
-757 0
-847 0
-857 0
-867 0
-947 0
-967 0
-776 0
-786 0
-796 0
-886 0
-896 0
-986 0
-778 0
-788 0
-798 0
-888 0
-898 0
-988 0
-779 0
-789 0
-799 0
-889 0
-899 0
-989 0
-147 0
-157 0
-167 0
-213 0
-223 0
-273 0
-283 0
-293 0
-249 0
-269 0
-279 0
-289 0
-299 0
-321 0
-371 0
-381 0
-344 0
-354 0
-374 0
-384 0
-347 0
-357 0
-348 0
-358 0
-378 0
-388 0
-418 0
-428 0
-438 0
-448 0
-458 0
-468 0
-512 0
-522 0
-532 0
-572 0
-582 0
-515 0
-525 0
-535 0
-516 0
-526 0
-536 0
-576 0
-586 0
-517 0
-527 0
-537 0
-577 0
-587 0
-614 0
-624 0
-634 0
-674 0
-684 0
-615 0
-625 0
-635 0
-619 0
-629 0
-639 0
-649 0
-743 0
-753 0
-773 0
-783 0
-793 0
-724 0
-774 0
-784 0
-794 0
-745 0
-755 0
-775 0
-785 0
-795 0
-842 0
-852 0
-862 0
-882 0
-892 0
-816 0
-826 0
-846 0
-856 0
-866 0
-917 0
-927 0
-937 0
-987 0
-918 0
-928 0
-938 0
-948 0
-968 0
-919 0
-929 0
-939 0
-949 0
-969 0
-414 0
-514 0
-814 0
-914 0
-215 0
-415 0
-417 0
-617 0
-817 0
-132 0
-432 0
-632 0
-133 0
-433 0
-533 0
-633 0
-538 0
-638 0
-439 0
-539 0
-146 0
-246 0
-346 0
-746 0
-946 0
-152 0
-352 0
-752 0
-453 0
-853 0
-154 0
-461 0
-861 0
-961 0
-164 0
-264 0
-165 0
-265 0
-865 0
-965 0
-267 0
-176 0
-276 0
-376 0
-476 0
-676 0
-179 0
-379 0
-188 0
-288 0
-195 0
-295 0
-895 0
-497 0
-797 0
-897 0
-198 0
-298 0
-199 0
247 0
648 0
-242 0
-244 0
-245 0
-248 0
-641 0
-643 0
-618 0
-628 0
-148 0
-748 0
-848 0
144 0
-142 0
-145 0
-149 0
-174 0
-184 0
-194 0
471 0
-472 0
-473 0
-474 0
-477 0
-491 0
-571 0
-581 0
-671 0
-681 0
-411 0
-421 0
-431 0
-441 0
-451 0
-171 0
-271 0
-771 0
459 0